experiment/data/hgs-res/Vrp-Set-B-n57/Vrp-Set-B-n57-hgs/1.hgs1.vrp
NAME : 1
COMMENT : CVRP Instance
TYPE : CVRP
DIMENSION : 57
EDGE_WEIGHT_TYPE : EUC_2D
CAPACITY : 100
NODE_COORD_SECTION
1	19.0	1.0
2	83.0	61.0
3	59.0	95.0
4	73.0	25.0
5	51.0	53.0
6	23.0	49.0
7	63.0	19.0
8	51.0	81.0
9	1.0	89.0
10	97.0	41.0
11	74.0	30.0
12	60.0	88.0
13	58.0	54.0
14	63.0	95.0
15	65.0	89.0
16	6.0	94.0
17	61.0	97.0
18	75.0	31.0
19	106.0	48.0
20	69.0	93.0
21	56.0	84.0
22	26.0	54.0
23	66.0	24.0
24	60.0	98.0
25	92.0	66.0
26	8.0	92.0
27	64.0	102.0
28	104.0	48.0
29	104.0	42.0
30	30.0	52.0
31	52.0	54.0
32	77.0	33.0
33	68.0	20.0
34	56.0	62.0
35	65.0	91.0
36	54.0	60.0
37	26.0	52.0
38	52.0	90.0
39	56.0	56.0
40	66.0	102.0
41	72.0	24.0
42	28.0	56.0
43	58.0	82.0
44	84.0	66.0
45	63.0	93.0
46	88.0	64.0
47	74.0	28.0
48	26.0	50.0
49	58.0	58.0
50	52.0	56.0
51	76.0	26.0
52	8.0	92.0
53	90.0	68.0
54	32.0	50.0
55	84.0	66.0
56	78.0	34.0
57	64.0	24.0
DEMAND_SECTION
1	0
2	18
3	16
4	23
5	20
6	18
7	19
8	2
9	4
10	10
11	2
12	26
13	21
14	10
15	8
16	20
17	21
18	4
19	5
20	15
21	18
22	2
23	21
24	20
25	23
26	13
27	22
28	17
29	11
30	7
31	13
32	13
33	16
34	14
35	25
36	18
37	2
38	19
39	6
40	19
41	9
42	24
43	2
44	13
45	17
46	20
47	24
48	8
49	15
50	7
51	7
52	4
53	22
54	11
55	10
56	25
57	24
DEPOT_SECTION
1
-1
EOF
