experiment/data/hgs-res/Vrp-Set-B-n57/Vrp-Set-B-n57-hgs/1.hgs1.log
=========== Algorithm Parameters =================
---- nbGranular        is set to 20
---- mu                is set to 25
---- lambda            is set to 40
---- nbElite           is set to 4
---- nbClose           is set to 5
---- targetFeasible    is set to 0.2
---- seed              is set to 1234
---- nbIter            is set to 20000
---- timeLimit         is set to 0
---- useSwapStar       is set to 1
==================================================
----- READING INSTANCE: baseline_results/cvrp_hgs/Vrp-Set-B-n57/Vrp-Set-B-n57-hgs/1.hgs1.vrp
----- FLEET SIZE WAS NOT SPECIFIED: DEFAULT INITIALIZATION TO 14 VEHICLES
----- INSTANCE SUCCESSFULLY LOADED WITH 56 CLIENTS AND 14 VEHICLES
----- BUILDING INITIAL POPULATION
----- STARTING GENETIC ALGORITHM
It      0      2 | T(s) 0.08 | Feas 62 1602.92 1620.83 | Inf 51 1565.29 1577.62 | Div 0.36 0.52 | Feas 0.50 1.00 | Pen 3.70 0.85
It    500    502 | T(s) 0.33 | Feas 32 1602.92 1611.63 | Inf 36 1557.01 1563.53 | Div 0.38 0.52 | Feas 0.19 1.00 | Pen 3.78 0.38
It   1000   1002 | T(s) 0.55 | Feas 42 1602.92 1606.88 | Inf 53 1554.34 1559.79 | Div 0.30 0.40 | Feas 0.18 1.00 | Pen 3.85 0.17
It   1500   1502 | T(s) 0.79 | Feas 29 1602.92 1615.45 | Inf 48 1553.61 1557.44 | Div 0.40 0.31 | Feas 0.25 1.00 | Pen 3.85 0.10
It   2000    175 | T(s) 1.01 | Feas 54 1602.29 1606.64 | Inf 46 1556.19 1563.84 | Div 0.28 0.44 | Feas 0.11 1.00 | Pen 4.71 0.10
It   2500    675 | T(s) 1.24 | Feas 53 1602.29 1606.10 | Inf 60 1554.56 1560.40 | Div 0.26 0.40 | Feas 0.06 1.00 | Pen 4.17 0.10
It   3000   1175 | T(s) 1.46 | Feas 54 1602.29 1603.57 | Inf 38 1553.11 1556.36 | Div 0.19 0.36 | Feas 0.34 1.00 | Pen 3.69 0.10
It   3500   1675 | T(s) 1.69 | Feas 26 1602.29 1605.28 | Inf 33 1555.86 1560.93 | Div 0.27 0.41 | Feas 0.13 1.00 | Pen 4.60 0.10
It   4000   2175 | T(s) 1.89 | Feas 57 1602.29 1603.12 | Inf 51 1554.26 1556.09 | Div 0.16 0.25 | Feas 0.58 1.00 | Pen 4.07 0.10
It   4500   2675 | T(s) 2.11 | Feas 47 1602.29 1603.23 | Inf 55 1552.85 1555.65 | Div 0.17 0.35 | Feas 0.37 1.00 | Pen 3.60 0.10
It   5000   3175 | T(s) 2.33 | Feas 41 1602.29 1604.06 | Inf 42 1555.53 1560.39 | Div 0.23 0.39 | Feas 0.11 1.00 | Pen 4.49 0.10
It   5500   3675 | T(s) 2.55 | Feas 54 1602.29 1603.03 | Inf 49 1553.97 1556.83 | Div 0.15 0.30 | Feas 0.33 1.00 | Pen 3.97 0.10
It   6000   4175 | T(s) 2.77 | Feas 51 1602.29 1603.45 | Inf 63 1554.46 1559.41 | Div 0.20 0.37 | Feas 0.05 1.00 | Pen 4.13 0.10
It   6500   4675 | T(s) 2.99 | Feas 50 1602.29 1603.18 | Inf 41 1553.02 1556.24 | Div 0.17 0.35 | Feas 0.30 1.00 | Pen 3.66 0.10
It   7000   5175 | T(s) 3.21 | Feas 40 1602.29 1604.77 | Inf 39 1555.75 1561.66 | Div 0.25 0.40 | Feas 0.11 1.00 | Pen 4.56 0.10
It   7500   5675 | T(s) 3.42 | Feas 29 1602.29 1604.99 | Inf 61 1554.16 1556.99 | Div 0.26 0.31 | Feas 0.37 1.00 | Pen 4.04 0.10
It   8000   6175 | T(s) 3.65 | Feas 62 1602.29 1603.14 | Inf 54 1554.65 1559.10 | Div 0.16 0.37 | Feas 0.05 1.00 | Pen 4.20 0.10
It   8500   6675 | T(s) 3.87 | Feas 53 1602.29 1603.08 | Inf 35 1553.20 1556.73 | Div 0.16 0.38 | Feas 0.37 1.00 | Pen 3.71 0.10
It   9000   7175 | T(s) 4.09 | Feas 52 1602.29 1604.77 | Inf 54 1553.65 1555.57 | Div 0.24 0.25 | Feas 0.18 1.00 | Pen 3.86 0.10
It   9500   7675 | T(s) 4.32 | Feas 53 1602.29 1604.34 | Inf 33 1556.24 1559.58 | Div 0.23 0.32 | Feas 0.12 1.00 | Pen 4.73 0.10
It  10000   8175 | T(s) 4.54 | Feas 34 1602.29 1604.98 | Inf 49 1554.60 1560.95 | Div 0.26 0.44 | Feas 0.07 1.00 | Pen 4.18 0.10
It  10500   8675 | T(s) 4.77 | Feas 65 1602.29 1602.95 | Inf 30 1553.15 1559.65 | Div 0.14 0.46 | Feas 0.28 1.00 | Pen 3.70 0.10
It  11000   9175 | T(s) 5.00 | Feas 54 1602.29 1603.79 | Inf 30 1555.64 1561.92 | Div 0.21 0.44 | Feas 0.09 1.00 | Pen 4.53 0.10
It  11500   9675 | T(s) 5.22 | Feas 53 1602.29 1605.00 | Inf 46 1556.18 1561.59 | Div 0.26 0.39 | Feas 0.15 1.00 | Pen 4.71 0.10
It  12000  10175 | T(s) 5.44 | Feas 62 1602.29 1603.41 | Inf 58 1554.55 1560.08 | Div 0.18 0.40 | Feas 0.11 1.00 | Pen 4.17 0.10
It  12500  10675 | T(s) 5.67 | Feas 52 1602.29 1603.56 | Inf 45 1553.10 1557.92 | Div 0.19 0.43 | Feas 0.26 1.00 | Pen 3.68 0.10
It  13000  11175 | T(s) 5.89 | Feas 33 1602.29 1604.82 | Inf 45 1555.85 1559.82 | Div 0.27 0.36 | Feas 0.07 1.00 | Pen 4.60 0.10
It  13500  11675 | T(s) 6.11 | Feas 56 1602.29 1603.36 | Inf 44 1554.25 1556.92 | Div 0.19 0.31 | Feas 0.35 1.00 | Pen 4.07 0.10
It  14000  12175 | T(s) 6.33 | Feas 58 1602.29 1603.49 | Inf 28 1552.84 1557.08 | Div 0.19 0.46 | Feas 0.29 1.00 | Pen 3.60 0.10
It  14500  12675 | T(s) 6.56 | Feas 31 1602.29 1606.20 | Inf 32 1555.52 1560.06 | Div 0.29 0.39 | Feas 0.07 1.00 | Pen 4.49 0.10
It  15000  13175 | T(s) 6.79 | Feas 31 1602.29 1604.22 | Inf 25 1553.97 1560.75 | Div 0.25 0.42 | Feas 0.40 1.00 | Pen 3.97 0.10
It  15500  13675 | T(s) 7.00 | Feas 25 1602.29 1605.93 | Inf 47 1554.45 1561.28 | Div 0.32 0.42 | Feas 0.05 1.00 | Pen 4.13 0.10
It  16000  14175 | T(s) 7.23 | Feas 63 1602.29 1602.95 | Inf 29 1553.01 1560.08 | Div 0.15 0.49 | Feas 0.29 1.00 | Pen 3.65 0.10
It  16500  14675 | T(s) 7.45 | Feas 38 1602.29 1604.14 | Inf 65 1555.74 1560.30 | Div 0.23 0.34 | Feas 0.07 1.00 | Pen 4.56 0.10
It  17000  15175 | T(s) 7.66 | Feas 35 1602.29 1604.94 | Inf 28 1553.92 1559.16 | Div 0.26 0.47 | Feas 0.18 1.00 | Pen 3.95 0.10
It  17500  15675 | T(s) 7.87 | Feas 29 1602.29 1604.64 | Inf 34 1552.55 1558.22 | Div 0.27 0.49 | Feas 0.36 1.00 | Pen 3.50 0.10
It  18000  16175 | T(s) 8.10 | Feas 33 1602.29 1605.14 | Inf 50 1555.15 1559.52 | Div 0.27 0.37 | Feas 0.06 1.00 | Pen 4.37 0.10
It  18500  16675 | T(s) 8.32 | Feas 50 1602.29 1603.35 | Inf 59 1553.64 1556.52 | Div 0.18 0.33 | Feas 0.37 1.00 | Pen 3.86 0.10
It  19000  17175 | T(s) 8.54 | Feas 34 1602.29 1603.77 | Inf 60 1552.30 1553.96 | Div 0.22 0.27 | Feas 0.26 1.00 | Pen 3.41 0.10
It  19500  17675 | T(s) 8.76 | Feas 54 1602.29 1603.83 | Inf 57 1554.84 1559.60 | Div 0.21 0.37 | Feas 0.10 1.00 | Pen 4.26 0.10
It  20000  18175 | T(s) 8.97 | Feas 56 1602.29 1603.71 | Inf 38 1555.36 1560.04 | Div 0.21 0.39 | Feas 0.25 1.00 | Pen 4.44 0.10
It  20500  18675 | T(s) 9.18 | Feas 57 1602.29 1603.93 | Inf 49 1553.59 1556.72 | Div 0.22 0.34 | Feas 0.24 1.00 | Pen 3.85 0.10
It  21000  19175 | T(s) 9.40 | Feas 55 1602.29 1603.06 | Inf 26 1554.06 1557.55 | Div 0.16 0.38 | Feas 0.40 1.00 | Pen 4.00 0.10
It  21500  19675 | T(s) 9.62 | Feas 59 1602.29 1603.84 | Inf 60 1554.54 1561.72 | Div 0.22 0.41 | Feas 0.05 1.00 | Pen 4.16 0.10
----- GENETIC ALGORITHM FINISHED AFTER 21827 ITERATIONS. TIME SPENT: 9.76275
----- WRITING BEST SOLUTION IN : baseline_results/cvrp_hgs/Vrp-Set-B-n57/Vrp-Set-B-n57-hgs/1.hgs1.tour
