experiment/data/hgs-res/Vrp-Set-B-n57/Vrp-Set-B-n57-hgs/1.hgs1.tour
Route #1: 22 46 50 3 40 32
Route #2: 56 6
Route #3: 31 55 9 28 18 27 1
Route #4: 43 54 52 24 45 17 10
Route #5: 12 38 48 35 49 30 4
Route #6: 20 2 13 44 34 14 42
Route #7: 19 39 26 23 16 7
Route #8: 53 29 41 21 36 47 5
Route #9: 8 15 25 51 37 11 33
Cost 1602.29
